42
13
0 15 17 20 21 22 23 24 27 30 32 33 34 35 37 38 39 40
1 15 19 20 22 29 31 32 34 40
2 13 14 17 20 21 22 29 30 31 35 36 37 38 40
3 14 15 17 18 19 21 22 25 28 29 32 34 35 37 38 39 40
4 13 15 17 21 22 24 25 30 31 34 36 37 40
5 16 22 26 30 32 33 36 39
6 14 17 20 22 25 29 30 32 33 34 35 36 38 40
7 17 21 24 30 34 35 36 41
8 17 18 22 23 24 25 26 27 29 33 34 38 39
9 15 16 19 24 26 29 32 33 36 38
10 13 15 21 24 26 28 31 32 33 36
11 16 26 31
12 39
